NAME          DCAP_2_4_3_200_SS165
ROWS
 N  OBJ
 L  CON1
 L  CON2
 L  CON3
 L  CON4
 L  CON5
 L  CON6
 L  CON7
 L  CON8
 L  CON9
 L  CON10
 L  CON11
 L  CON12
 E  CON13
 E  CON14
 E  CON15
 E  CON16
 E  CON17
 E  CON18
 E  CON19
 E  CON20
 E  CON21
 E  CON22
 E  CON23
 E  CON24
COLUMNS
    x[1,1]    OBJ       6.180167      CON1      1.000000    
    x[1,1]    CON7      -1.000000     CON8      -1.000000   
    x[1,1]    CON9      -1.000000   
    x[1,2]    OBJ       6.563535      CON2      1.000000    
    x[1,2]    CON8      -1.000000     CON9      -1.000000   
    x[1,3]    OBJ       7.443064      CON3      1.000000    
    x[1,3]    CON9      -1.000000   
    x[2,1]    OBJ       6.732585      CON4      1.000000    
    x[2,1]    CON10     -1.000000     CON11     -1.000000   
    x[2,1]    CON12     -1.000000   
    x[2,2]    OBJ       5.039546      CON5      1.000000    
    x[2,2]    CON11     -1.000000     CON12     -1.000000   
    x[2,3]    OBJ       6.054841      CON6      1.000000    
    x[2,3]    CON12     -1.000000   
    MARKER    'MARKER'                'INTORG'
    u[1,1]    OBJ       48.076654     CON1      -1.000000   
    u[1,2]    OBJ       20.066487     CON2      -1.000000   
    u[1,3]    OBJ       32.230043     CON3      -1.000000   
    u[2,1]    OBJ       49.996186     CON4      -1.000000   
    u[2,2]    OBJ       49.466655     CON5      -1.000000   
    u[2,3]    OBJ       27.484319     CON6      -1.000000   
    y[1,1,1]  OBJ       6.444388      CON7      0.511688    
    y[1,1,1]  CON13     1.000000    
    y[1,1,2]  OBJ       6.383996      CON8      0.587646    
    y[1,1,2]  CON14     1.000000    
    y[1,1,3]  OBJ       8.427414      CON9      0.874459    
    y[1,1,3]  CON15     1.000000    
    y[1,2,1]  OBJ       6.587138      CON7      0.654037    
    y[1,2,1]  CON16     1.000000    
    y[1,2,2]  OBJ       7.219827      CON8      0.728063    
    y[1,2,2]  CON17     1.000000    
    y[1,2,3]  OBJ       9.298947      CON9      1.421095    
    y[1,2,3]  CON18     1.000000    
    y[1,3,1]  OBJ       6.852887      CON7      0.963695    
    y[1,3,1]  CON19     1.000000    
    y[1,3,2]  OBJ       6.003915      CON8      1.433186    
    y[1,3,2]  CON20     1.000000    
    y[1,3,3]  OBJ       5.891482      CON9      1.443889    
    y[1,3,3]  CON21     1.000000    
    y[1,4,1]  OBJ       7.687832      CON7      1.165441    
    y[1,4,1]  CON22     1.000000    
    y[1,4,2]  OBJ       5.509562      CON8      0.718440    
    y[1,4,2]  CON23     1.000000    
    y[1,4,3]  OBJ       9.607395      CON9      1.246035    
    y[1,4,3]  CON24     1.000000    
    y[2,1,1]  OBJ       8.148904      CON10     0.511688    
    y[2,1,1]  CON13     1.000000    
    y[2,1,2]  OBJ       8.793494      CON11     0.587646    
    y[2,1,2]  CON14     1.000000    
    y[2,1,3]  OBJ       8.946503      CON12     0.874459    
    y[2,1,3]  CON15     1.000000    
    y[2,2,1]  OBJ       7.400595      CON10     0.654037    
    y[2,2,1]  CON16     1.000000    
    y[2,2,2]  OBJ       5.938169      CON11     0.728063    
    y[2,2,2]  CON17     1.000000    
    y[2,2,3]  OBJ       5.184559      CON12     1.421095    
    y[2,2,3]  CON18     1.000000    
    y[2,3,1]  OBJ       9.226903      CON10     0.963695    
    y[2,3,1]  CON19     1.000000    
    y[2,3,2]  OBJ       5.325098      CON11     1.433186    
    y[2,3,2]  CON20     1.000000    
    y[2,3,3]  OBJ       5.320937      CON12     1.443889    
    y[2,3,3]  CON21     1.000000    
    y[2,4,1]  OBJ       9.060275      CON10     1.165441    
    y[2,4,1]  CON22     1.000000    
    y[2,4,2]  OBJ       8.644476      CON11     0.718440    
    y[2,4,2]  CON23     1.000000    
    y[2,4,3]  OBJ       6.973982      CON12     1.246035    
    y[2,4,3]  CON24     1.000000    
    z[1,1]    OBJ       757.454148    CON13     1.000000    
    z[1,2]    OBJ       957.299176    CON14     1.000000    
    z[1,3]    OBJ       570.783896    CON15     1.000000    
    z[2,1]    OBJ       983.674331    CON16     1.000000    
    z[2,2]    OBJ       595.670586    CON17     1.000000    
    z[2,3]    OBJ       622.374818    CON18     1.000000    
    z[3,1]    OBJ       682.502403    CON19     1.000000    
    z[3,2]    OBJ       803.194848    CON20     1.000000    
    z[3,3]    OBJ       987.679367    CON21     1.000000    
    z[4,1]    OBJ       531.954974    CON22     1.000000    
    z[4,2]    OBJ       603.768290    CON23     1.000000    
    z[4,3]    OBJ       783.296125    CON24     1.000000    
    MARKER    'MARKER'                 'INTEND'
RHS
    RHS       CON1      -0.000000     CON2      -0.000000   
    RHS       CON3      -0.000000     CON4      -0.000000   
    RHS       CON5      -0.000000     CON6      -0.000000   
    RHS       CON7      -0.000000     CON8      -0.000000   
    RHS       CON9      -0.000000     CON10     -0.000000   
    RHS       CON11     -0.000000     CON12     -0.000000   
    RHS       CON13     1.000000      CON14     1.000000    
    RHS       CON15     1.000000      CON16     1.000000    
    RHS       CON17     1.000000      CON18     1.000000    
    RHS       CON19     1.000000      CON20     1.000000    
    RHS       CON21     1.000000      CON22     1.000000    
    RHS       CON23     1.000000      CON24     1.000000    
BOUNDS
 BV BOUND     u[1,1]  
 BV BOUND     u[1,2]  
 BV BOUND     u[1,3]  
 BV BOUND     u[2,1]  
 BV BOUND     u[2,2]  
 BV BOUND     u[2,3]  
 BV BOUND     y[1,1,1]
 BV BOUND     y[1,1,2]
 BV BOUND     y[1,1,3]
 BV BOUND     y[1,2,1]
 BV BOUND     y[1,2,2]
 BV BOUND     y[1,2,3]
 BV BOUND     y[1,3,1]
 BV BOUND     y[1,3,2]
 BV BOUND     y[1,3,3]
 BV BOUND     y[1,4,1]
 BV BOUND     y[1,4,2]
 BV BOUND     y[1,4,3]
 BV BOUND     y[2,1,1]
 BV BOUND     y[2,1,2]
 BV BOUND     y[2,1,3]
 BV BOUND     y[2,2,1]
 BV BOUND     y[2,2,2]
 BV BOUND     y[2,2,3]
 BV BOUND     y[2,3,1]
 BV BOUND     y[2,3,2]
 BV BOUND     y[2,3,3]
 BV BOUND     y[2,4,1]
 BV BOUND     y[2,4,2]
 BV BOUND     y[2,4,3]
 BV BOUND     z[1,1]  
 BV BOUND     z[1,2]  
 BV BOUND     z[1,3]  
 BV BOUND     z[2,1]  
 BV BOUND     z[2,2]  
 BV BOUND     z[2,3]  
 BV BOUND     z[3,1]  
 BV BOUND     z[3,2]  
 BV BOUND     z[3,3]  
 BV BOUND     z[4,1]  
 BV BOUND     z[4,2]  
 BV BOUND     z[4,3]  
ENDATA
